#Start
 ISTART = 0
 ICHARG =2
 #Electronic
 ENCUT = 300
 PREC =Accurate
 ISMEAR=0
 SIGMA =0.1
 NELM=60
 EDIFF=1E-6

 #Spin related
 #ISPIN = 2
 #MAGMOM=2*1.01*0.52*0.75
 #Ionic
 
 EDIFFG=-0.01
 NSW=0
 IBRION=2
 ISIF=2
 LREAL=.FALSE.
 ADDGRID=.TRUE.
 #LWAVE=.FALSE.
 #LCHARG=.FALSE.
 
 NPAR = 4
